# Solution for model Manpower planning
# Objective value = 508700
Hire[1,s1] 0
Hire[1,s2] 0
Hire[1,s3] 60
Hire[2,s1] 0
Hire[2,s2] 798
Hire[2,s3] 495
Hire[3,s1] 0
Hire[3,s2] 799
Hire[3,s3] 500
Part_time[1,s1] 0
Part_time[1,s2] 0
Part_time[1,s3] 2
Part_time[2,s1] 0
Part_time[2,s2] 0
Part_time[2,s3] 0
Part_time[3,s1] 0
Part_time[3,s2] 0
Part_time[3,s3] 0
Available[1,s1] 1000
Available[1,s2] 1400
Available[1,s3] 1001
Available[2,s1] 500
Available[2,s2] 2000
Available[2,s3] 1500
Available[3,s1] 0
Available[3,s2] 2500
Available[3,s3] 2000
Layoff[1,s1] 814
Layoff[1,s2] 0
Layoff[1,s3] 0
Layoff[2,s1] 252
Layoff[2,s2] 0
Layoff[2,s3] 0
Layoff[3,s1] 347
Layoff[3,s2] 0
Layoff[3,s3] 0
Overmanned[1,s1] 0
Overmanned[1,s2] 0
Overmanned[1,s3] 0
Overmanned[2,s1] 0
Overmanned[2,s2] 0
Overmanned[2,s3] 0
Overmanned[3,s1] 0
Overmanned[3,s2] 0
Overmanned[3,s3] 0
Train[1,s1,s1] 0
Train[1,s1,s2] 0
Train[1,s1,s3] 0
Train[1,s2,s1] 25
Train[1,s2,s2] 0
Train[1,s2,s3] 0
Train[1,s3,s1] 3
Train[1,s3,s2] 0
Train[1,s3,s3] 0
Train[2,s1,s1] 0
Train[2,s1,s2] 148
Train[2,s1,s3] 0
Train[2,s2,s1] 0
Train[2,s2,s2] 0
Train[2,s2,s3] 109
Train[2,s3,s1] 0
Train[2,s3,s2] 0
Train[2,s3,s3] 0
Train[3,s1,s1] 0
Train[3,s1,s2] 104
Train[3,s1,s3] 0
Train[3,s2,s1] 2
Train[3,s2,s2] 0
Train[3,s2,s3] 140
Train[3,s3,s1] 0
Train[3,s3,s2] 8
Train[3,s3,s3] 0
